(set-info :smt-lib-version 2.6)
(set-logic QF_UF)
(set-info :source |Generator: Rodin SMT Plug-in|)
(set-info :license "https://creativecommons.org/licenses/by-nc/4.0/")
(set-info :category "industrial")
(set-info :status unsat)
(declare-fun car () Bool)
(declare-fun circuit () Bool)
(declare-fun clk () Bool)
(declare-fun prt () Bool)
(assert circuit)
(assert (let ((_let_1 (not clk))) (let ((_let_2 (not car))) (let ((_let_3 (not prt))) (not (or (and _let_3 car clk) (and prt (or _let_2 clk)) (and _let_3 (or _let_2 _let_1)) (and prt car _let_1)))))))
(check-sat)
(exit)
